instances/knapsack/knapsack_general/knapsack_20_10_3.kp
42
20
2186

160 16.0 260 29.01
270 27.0 370 63.58
340 34.0 440 76.71
799 80.0 899 128.37
970 97.0 1070 157.35
200 20.0 300 37.8
43 4.0 143 15.78
316 32.0 416 52.77
932 93.0 1032 182.64
730 73.0 830 144.7
746 75.0 846 133.09
129 13.0 229 24.32
349 35.0 449 57.02
66 7.0 166 21.36
404 40.0 504 85.94
772 77.0 872 113.57
5 0.0 105 15.85
839 84.0 939 121.3
506 51.0 606 92.96
171 17.0 271 27.1

42
[957, 2618, 2666, 2590, 987, 2548, 4705, 4907, 3134, 2727]

[[10, 1, 13, 8, 14, 7, 33, 36, 24, 11, 11, 24, 6, 26, 23, 32, 35, 7, 4, 44] [28, 13, 103, 14, 59, 14, 69, 58, 23, 128, 86, 82, 72, 3, 13, 45, 6, 72, 105, 49] [124, 40, 54, 28, 54, 12, 116, 44, 124, 85, 8, 60, 93, 90, 6, 96, 117, 4, 108, 14] [123, 77, 68, 45, 36, 36, 115, 87, 41, 18, 5, 87, 20, 12, 81, 16, 121, 60, 120, 69] [29, 0, 29, 37, 19, 30, 17, 12, 9, 22, 9, 15, 11, 22, 48, 25, 39, 19, 8, 32] [33, 48, 81, 109, 8, 101, 126, 101, 31, 59, 54, 104, 32, 106, 36, 112, 106, 34, 43, 73] [210, 49, 13, 39, 63, 119, 50, 50, 13, 231, 213, 135, 146, 70, 169, 105, 169, 50, 41, 126] [201, 48, 28, 55, 47, 14, 201, 30, 31, 211, 47, 160, 36, 11, 199, 169, 68, 189, 55, 43] [153, 95, 8, 141, 108, 108, 128, 141, 92, 46, 54, 151, 41, 122, 5, 24, 41, 110, 70, 81] [78, 117, 81, 81, 71, 54, 47, 64, 1, 4, 35, 60, 46, 19, 28, 16, 127, 54, 75, 11]]

[[118, 323, 55, 823, 393, 757, 934, 957, 683, 830, 596, 266, 372, 758, 926, 84, 404, 651, 149, 139] [492, 138, 304, 315, 974, 988, 575, 240, 376, 638, 822, 917, 57, 670, 944, 560, 585, 787, 54, 39] [656, 590, 4, 103, 410, 544, 667, 500, 964, 562, 58, 681, 613, 650, 756, 844, 277, 999, 698, 91] [64, 862, 380, 151, 626, 440, 243, 788, 300, 26, 562, 753, 677, 626, 868, 676, 341, 743, 658, 579] [781, 942, 70, 314, 392, 616, 853, 112, 658, 505, 987, 789, 875, 433, 893, 175, 19, 814, 76, 798] [738, 175, 683, 203, 597, 33, 954, 937, 367, 466, 640, 158, 144, 786, 674, 472, 888, 255, 841, 183] [306, 384, 118, 761, 188, 826, 261, 678, 190, 44, 580, 947, 847, 572, 422, 350, 983, 337, 388, 229] [949, 983, 689, 648, 687, 305, 352, 61, 241, 907, 263, 970, 50, 667, 537, 789, 442, 168, 31, 76] [876, 457, 461, 845, 975, 67, 436, 211, 873, 796, 2, 1000, 834, 708, 484, 666, 938, 257, 747, 905] [187, 597, 487, 374, 885, 511, 294, 843, 287, 425, 493, 64, 760, 857, 871, 939, 368, 382, 421, 866]]
