instances/knapsack/knapsack_general/knapsack_20_10_3.lp
\ Model knapsack_20_10_3
\ LP format - for model browsing. Use MPS format to capture full model detail.
\ Signature: 0xaaa9fb3fb8ceec15
Minimize
  - 260 y[0] - 370 y[1] - 440 y[2] - 899 y[3] - 1070 y[4] - 300 y[5]
   - 143 y[6] - 416 y[7] - 1032 y[8] - 830 y[9] - 846 y[10] - 229 y[11]
   - 449 y[12] - 166 y[13] - 504 y[14] - 872 y[15] - 105 y[16] - 939 y[17]
   - 606 y[18] - 271 y[19]
Subject To
 primal_upper: 160 y[0] + 270 y[1] + 340 y[2] + 799 y[3] + 970 y[4]
   + 200 y[5] + 43 y[6] + 316 y[7] + 932 y[8] + 730 y[9] + 746 y[10]
   + 129 y[11] + 349 y[12] + 66 y[13] + 404 y[14] + 772 y[15] + 5 y[16]
   + 839 y[17] + 506 y[18] + 171 y[19] + 16 z[0] + 27 z[1] + 34 z[2]
   + 80 z[3] + 97 z[4] + 20 z[5] + 4 z[6] + 32 z[7] + 93 z[8] + 73 z[9]
   + 75 z[10] + 13 z[11] + 35 z[12] + 7 z[13] + 40 z[14] + 77 z[15]
   + 84 z[17] + 51 z[18] + 17 z[19] <= 2186
 primal_lower0: - 10 y[0] - y[1] - 13 y[2] - 8 y[3] - 14 y[4] - 7 y[5]
   - 33 y[6] - 36 y[7] - 24 y[8] - 11 y[9] - 11 y[10] - 24 y[11] - 6 y[12]
   - 26 y[13] - 23 y[14] - 32 y[15] - 35 y[16] - 7 y[17] - 4 y[18]
   - 44 y[19] + 118 u[0] + 323 u[1] + 55 u[2] + 823 u[3] + 393 u[4]
   + 757 u[5] + 934 u[6] + 957 u[7] + 683 u[8] + 830 u[9] + 596 u[10]
   + 266 u[11] + 372 u[12] + 758 u[13] + 926 u[14] + 84 u[15] + 404 u[16]
   + 651 u[17] + 149 u[18] + 139 u[19] <= 957
 primal_lower1: - 28 y[0] - 13 y[1] - 103 y[2] - 14 y[3] - 59 y[4]
   - 14 y[5] - 69 y[6] - 58 y[7] - 23 y[8] - 128 y[9] - 86 y[10] - 82 y[11]
   - 72 y[12] - 3 y[13] - 13 y[14] - 45 y[15] - 6 y[16] - 72 y[17]
   - 105 y[18] - 49 y[19] + 492 u[0] + 138 u[1] + 304 u[2] + 315 u[3]
   + 974 u[4] + 988 u[5] + 575 u[6] + 240 u[7] + 376 u[8] + 638 u[9]
   + 822 u[10] + 917 u[11] + 57 u[12] + 670 u[13] + 944 u[14] + 560 u[15]
   + 585 u[16] + 787 u[17] + 54 u[18] + 39 u[19] <= 2618
 primal_lower2: - 124 y[0] - 40 y[1] - 54 y[2] - 28 y[3] - 54 y[4]
   - 12 y[5] - 116 y[6] - 44 y[7] - 124 y[8] - 85 y[9] - 8 y[10] - 60 y[11]
   - 93 y[12] - 90 y[13] - 6 y[14] - 96 y[15] - 117 y[16] - 4 y[17]
   - 108 y[18] - 14 y[19] + 656 u[0] + 590 u[1] + 4 u[2] + 103 u[3]
   + 410 u[4] + 544 u[5] + 667 u[6] + 500 u[7] + 964 u[8] + 562 u[9]
   + 58 u[10] + 681 u[11] + 613 u[12] + 650 u[13] + 756 u[14] + 844 u[15]
   + 277 u[16] + 999 u[17] + 698 u[18] + 91 u[19] <= 2666
 primal_lower3: - 123 y[0] - 77 y[1] - 68 y[2] - 45 y[3] - 36 y[4]
   - 36 y[5] - 115 y[6] - 87 y[7] - 41 y[8] - 18 y[9] - 5 y[10] - 87 y[11]
   - 20 y[12] - 12 y[13] - 81 y[14] - 16 y[15] - 121 y[16] - 60 y[17]
   - 120 y[18] - 69 y[19] + 64 u[0] + 862 u[1] + 380 u[2] + 151 u[3]
   + 626 u[4] + 440 u[5] + 243 u[6] + 788 u[7] + 300 u[8] + 26 u[9]
   + 562 u[10] + 753 u[11] + 677 u[12] + 626 u[13] + 868 u[14] + 676 u[15]
   + 341 u[16] + 743 u[17] + 658 u[18] + 579 u[19] <= 2590
 primal_lower4: - 29 y[0] - 29 y[2] - 37 y[3] - 19 y[4] - 30 y[5] - 17 y[6]
   - 12 y[7] - 9 y[8] - 22 y[9] - 9 y[10] - 15 y[11] - 11 y[12] - 22 y[13]
   - 48 y[14] - 25 y[15] - 39 y[16] - 19 y[17] - 8 y[18] - 32 y[19]
   + 781 u[0] + 942 u[1] + 70 u[2] + 314 u[3] + 392 u[4] + 616 u[5]
   + 853 u[6] + 112 u[7] + 658 u[8] + 505 u[9] + 987 u[10] + 789 u[11]
   + 875 u[12] + 433 u[13] + 893 u[14] + 175 u[15] + 19 u[16] + 814 u[17]
   + 76 u[18] + 798 u[19] <= 987
 primal_lower5: - 33 y[0] - 48 y[1] - 81 y[2] - 109 y[3] - 8 y[4]
   - 101 y[5] - 126 y[6] - 101 y[7] - 31 y[8] - 59 y[9] - 54 y[10]
   - 104 y[11] - 32 y[12] - 106 y[13] - 36 y[14] - 112 y[15] - 106 y[16]
   - 34 y[17] - 43 y[18] - 73 y[19] + 738 u[0] + 175 u[1] + 683 u[2]
   + 203 u[3] + 597 u[4] + 33 u[5] + 954 u[6] + 937 u[7] + 367 u[8]
   + 466 u[9] + 640 u[10] + 158 u[11] + 144 u[12] + 786 u[13] + 674 u[14]
   + 472 u[15] + 888 u[16] + 255 u[17] + 841 u[18] + 183 u[19] <= 2548
 primal_lower6: - 210 y[0] - 49 y[1] - 13 y[2] - 39 y[3] - 63 y[4]
   - 119 y[5] - 50 y[6] - 50 y[7] - 13 y[8] - 231 y[9] - 213 y[10]
   - 135 y[11] - 146 y[12] - 70 y[13] - 169 y[14] - 105 y[15] - 169 y[16]
   - 50 y[17] - 41 y[18] - 126 y[19] + 306 u[0] + 384 u[1] + 118 u[2]
   + 761 u[3] + 188 u[4] + 826 u[5] + 261 u[6] + 678 u[7] + 190 u[8]
   + 44 u[9] + 580 u[10] + 947 u[11] + 847 u[12] + 572 u[13] + 422 u[14]
   + 350 u[15] + 983 u[16] + 337 u[17] + 388 u[18] + 229 u[19] <= 4705
 primal_lower7: - 201 y[0] - 48 y[1] - 28 y[2] - 55 y[3] - 47 y[4]
   - 14 y[5] - 201 y[6] - 30 y[7] - 31 y[8] - 211 y[9] - 47 y[10]
   - 160 y[11] - 36 y[12] - 11 y[13] - 199 y[14] - 169 y[15] - 68 y[16]
   - 189 y[17] - 55 y[18] - 43 y[19] + 949 u[0] + 983 u[1] + 689 u[2]
   + 648 u[3] + 687 u[4] + 305 u[5] + 352 u[6] + 61 u[7] + 241 u[8]
   + 907 u[9] + 263 u[10] + 970 u[11] + 50 u[12] + 667 u[13] + 537 u[14]
   + 789 u[15] + 442 u[16] + 168 u[17] + 31 u[18] + 76 u[19] <= 4907
 primal_lower8: - 153 y[0] - 95 y[1] - 8 y[2] - 141 y[3] - 108 y[4]
   - 108 y[5] - 128 y[6] - 141 y[7] - 92 y[8] - 46 y[9] - 54 y[10]
   - 151 y[11] - 41 y[12] - 122 y[13] - 5 y[14] - 24 y[15] - 41 y[16]
   - 110 y[17] - 70 y[18] - 81 y[19] + 876 u[0] + 457 u[1] + 461 u[2]
   + 845 u[3] + 975 u[4] + 67 u[5] + 436 u[6] + 211 u[7] + 873 u[8]
   + 796 u[9] + 2 u[10] + 1000 u[11] + 834 u[12] + 708 u[13] + 484 u[14]
   + 666 u[15] + 938 u[16] + 257 u[17] + 747 u[18] + 905 u[19] <= 3134
 primal_lower9: - 78 y[0] - 117 y[1] - 81 y[2] - 81 y[3] - 71 y[4]
   - 54 y[5] - 47 y[6] - 64 y[7] - y[8] - 4 y[9] - 35 y[10] - 60 y[11]
   - 46 y[12] - 19 y[13] - 28 y[14] - 16 y[15] - 127 y[16] - 54 y[17]
   - 75 y[18] - 11 y[19] + 187 u[0] + 597 u[1] + 487 u[2] + 374 u[3]
   + 885 u[4] + 511 u[5] + 294 u[6] + 843 u[7] + 287 u[8] + 425 u[9]
   + 493 u[10] + 64 u[11] + 760 u[12] + 857 u[13] + 871 u[14] + 939 u[15]
   + 368 u[16] + 382 u[17] + 421 u[18] + 866 u[19] <= 2727
 mccormick1[0]: - u[0] + z[0] <= 0
 mccormick1[1]: - u[1] + z[1] <= 0
 mccormick1[2]: - u[2] + z[2] <= 0
 mccormick1[3]: - u[3] + z[3] <= 0
 mccormick1[4]: - u[4] + z[4] <= 0
 mccormick1[5]: - u[5] + z[5] <= 0
 mccormick1[6]: - u[6] + z[6] <= 0
 mccormick1[7]: - u[7] + z[7] <= 0
 mccormick1[8]: - u[8] + z[8] <= 0
 mccormick1[9]: - u[9] + z[9] <= 0
 mccormick1[10]: - u[10] + z[10] <= 0
 mccormick1[11]: - u[11] + z[11] <= 0
 mccormick1[12]: - u[12] + z[12] <= 0
 mccormick1[13]: - u[13] + z[13] <= 0
 mccormick1[14]: - u[14] + z[14] <= 0
 mccormick1[15]: - u[15] + z[15] <= 0
 mccormick1[16]: - u[16] + z[16] <= 0
 mccormick1[17]: - u[17] + z[17] <= 0
 mccormick1[18]: - u[18] + z[18] <= 0
 mccormick1[19]: - u[19] + z[19] <= 0
 mccormick2[0]: - y[0] + z[0] <= 0
 mccormick2[1]: - y[1] + z[1] <= 0
 mccormick2[2]: - y[2] + z[2] <= 0
 mccormick2[3]: - y[3] + z[3] <= 0
 mccormick2[4]: - y[4] + z[4] <= 0
 mccormick2[5]: - y[5] + z[5] <= 0
 mccormick2[6]: - y[6] + z[6] <= 0
 mccormick2[7]: - y[7] + z[7] <= 0
 mccormick2[8]: - y[8] + z[8] <= 0
 mccormick2[9]: - y[9] + z[9] <= 0
 mccormick2[10]: - y[10] + z[10] <= 0
 mccormick2[11]: - y[11] + z[11] <= 0
 mccormick2[12]: - y[12] + z[12] <= 0
 mccormick2[13]: - y[13] + z[13] <= 0
 mccormick2[14]: - y[14] + z[14] <= 0
 mccormick2[15]: - y[15] + z[15] <= 0
 mccormick2[16]: - y[16] + z[16] <= 0
 mccormick2[17]: - y[17] + z[17] <= 0
 mccormick2[18]: - y[18] + z[18] <= 0
 mccormick2[19]: - y[19] + z[19] <= 0
 mccormick3[0]: y[0] + u[0] - z[0] <= 1
 mccormick3[1]: y[1] + u[1] - z[1] <= 1
 mccormick3[2]: y[2] + u[2] - z[2] <= 1
 mccormick3[3]: y[3] + u[3] - z[3] <= 1
 mccormick3[4]: y[4] + u[4] - z[4] <= 1
 mccormick3[5]: y[5] + u[5] - z[5] <= 1
 mccormick3[6]: y[6] + u[6] - z[6] <= 1
 mccormick3[7]: y[7] + u[7] - z[7] <= 1
 mccormick3[8]: y[8] + u[8] - z[8] <= 1
 mccormick3[9]: y[9] + u[9] - z[9] <= 1
 mccormick3[10]: y[10] + u[10] - z[10] <= 1
 mccormick3[11]: y[11] + u[11] - z[11] <= 1
 mccormick3[12]: y[12] + u[12] - z[12] <= 1
 mccormick3[13]: y[13] + u[13] - z[13] <= 1
 mccormick3[14]: y[14] + u[14] - z[14] <= 1
 mccormick3[15]: y[15] + u[15] - z[15] <= 1
 mccormick3[16]: y[16] + u[16] - z[16] <= 1
 mccormick3[17]: y[17] + u[17] - z[17] <= 1
 mccormick3[18]: y[18] + u[18] - z[18] <= 1
 mccormick3[19]: y[19] + u[19] - z[19] <= 1
Bounds
Binaries
 y[0] y[1] y[2] y[3] y[4] y[5] y[6] y[7] y[8] y[9] y[10] y[11] y[12] y[13]
 y[14] y[15] y[16] y[17] y[18] y[19] u[0] u[1] u[2] u[3] u[4] u[5] u[6]
 u[7] u[8] u[9] u[10] u[11] u[12] u[13] u[14] u[15] u[16] u[17] u[18] u[19]
 z[0] z[1] z[2] z[3] z[4] z[5] z[6] z[7] z[8] z[9] z[10] z[11] z[12] z[13]
 z[14] z[15] z[16] z[17] z[18] z[19]
End
