instances/knapsack/knapsack_general/knapsack_20_10_3.mps
* Signature: 0xaaa9fb3fb8ceec15
NAME knapsack_20_10_3
ROWS
 N  OBJ
 L  primal_upper
 L  primal_lower0
 L  primal_lower1
 L  primal_lower2
 L  primal_lower3
 L  primal_lower4
 L  primal_lower5
 L  primal_lower6
 L  primal_lower7
 L  primal_lower8
 L  primal_lower9
 L  mccormick1[0]
 L  mccormick1[1]
 L  mccormick1[2]
 L  mccormick1[3]
 L  mccormick1[4]
 L  mccormick1[5]
 L  mccormick1[6]
 L  mccormick1[7]
 L  mccormick1[8]
 L  mccormick1[9]
 L  mccormick1[10]
 L  mccormick1[11]
 L  mccormick1[12]
 L  mccormick1[13]
 L  mccormick1[14]
 L  mccormick1[15]
 L  mccormick1[16]
 L  mccormick1[17]
 L  mccormick1[18]
 L  mccormick1[19]
 L  mccormick2[0]
 L  mccormick2[1]
 L  mccormick2[2]
 L  mccormick2[3]
 L  mccormick2[4]
 L  mccormick2[5]
 L  mccormick2[6]
 L  mccormick2[7]
 L  mccormick2[8]
 L  mccormick2[9]
 L  mccormick2[10]
 L  mccormick2[11]
 L  mccormick2[12]
 L  mccormick2[13]
 L  mccormick2[14]
 L  mccormick2[15]
 L  mccormick2[16]
 L  mccormick2[17]
 L  mccormick2[18]
 L  mccormick2[19]
 L  mccormick3[0]
 L  mccormick3[1]
 L  mccormick3[2]
 L  mccormick3[3]
 L  mccormick3[4]
 L  mccormick3[5]
 L  mccormick3[6]
 L  mccormick3[7]
 L  mccormick3[8]
 L  mccormick3[9]
 L  mccormick3[10]
 L  mccormick3[11]
 L  mccormick3[12]
 L  mccormick3[13]
 L  mccormick3[14]
 L  mccormick3[15]
 L  mccormick3[16]
 L  mccormick3[17]
 L  mccormick3[18]
 L  mccormick3[19]
COLUMNS
    MARKER    'MARKER'                 'INTORG'
    y[0]      OBJ       -260
    y[0]      primal_upper  160
    y[0]      primal_lower0  -10
    y[0]      primal_lower1  -28
    y[0]      primal_lower2  -124
    y[0]      primal_lower3  -123
    y[0]      primal_lower4  -29
    y[0]      primal_lower5  -33
    y[0]      primal_lower6  -210
    y[0]      primal_lower7  -201
    y[0]      primal_lower8  -153
    y[0]      primal_lower9  -78
    y[0]      mccormick2[0]  -1
    y[0]      mccormick3[0]  1
    y[1]      OBJ       -370
    y[1]      primal_upper  270
    y[1]      primal_lower0  -1
    y[1]      primal_lower1  -13
    y[1]      primal_lower2  -40
    y[1]      primal_lower3  -77
    y[1]      primal_lower5  -48
    y[1]      primal_lower6  -49
    y[1]      primal_lower7  -48
    y[1]      primal_lower8  -95
    y[1]      primal_lower9  -117
    y[1]      mccormick2[1]  -1
    y[1]      mccormick3[1]  1
    y[2]      OBJ       -440
    y[2]      primal_upper  340
    y[2]      primal_lower0  -13
    y[2]      primal_lower1  -103
    y[2]      primal_lower2  -54
    y[2]      primal_lower3  -68
    y[2]      primal_lower4  -29
    y[2]      primal_lower5  -81
    y[2]      primal_lower6  -13
    y[2]      primal_lower7  -28
    y[2]      primal_lower8  -8
    y[2]      primal_lower9  -81
    y[2]      mccormick2[2]  -1
    y[2]      mccormick3[2]  1
    y[3]      OBJ       -899
    y[3]      primal_upper  799
    y[3]      primal_lower0  -8
    y[3]      primal_lower1  -14
    y[3]      primal_lower2  -28
    y[3]      primal_lower3  -45
    y[3]      primal_lower4  -37
    y[3]      primal_lower5  -109
    y[3]      primal_lower6  -39
    y[3]      primal_lower7  -55
    y[3]      primal_lower8  -141
    y[3]      primal_lower9  -81
    y[3]      mccormick2[3]  -1
    y[3]      mccormick3[3]  1
    y[4]      OBJ       -1070
    y[4]      primal_upper  970
    y[4]      primal_lower0  -14
    y[4]      primal_lower1  -59
    y[4]      primal_lower2  -54
    y[4]      primal_lower3  -36
    y[4]      primal_lower4  -19
    y[4]      primal_lower5  -8
    y[4]      primal_lower6  -63
    y[4]      primal_lower7  -47
    y[4]      primal_lower8  -108
    y[4]      primal_lower9  -71
    y[4]      mccormick2[4]  -1
    y[4]      mccormick3[4]  1
    y[5]      OBJ       -300
    y[5]      primal_upper  200
    y[5]      primal_lower0  -7
    y[5]      primal_lower1  -14
    y[5]      primal_lower2  -12
    y[5]      primal_lower3  -36
    y[5]      primal_lower4  -30
    y[5]      primal_lower5  -101
    y[5]      primal_lower6  -119
    y[5]      primal_lower7  -14
    y[5]      primal_lower8  -108
    y[5]      primal_lower9  -54
    y[5]      mccormick2[5]  -1
    y[5]      mccormick3[5]  1
    y[6]      OBJ       -143
    y[6]      primal_upper  43
    y[6]      primal_lower0  -33
    y[6]      primal_lower1  -69
    y[6]      primal_lower2  -116
    y[6]      primal_lower3  -115
    y[6]      primal_lower4  -17
    y[6]      primal_lower5  -126
    y[6]      primal_lower6  -50
    y[6]      primal_lower7  -201
    y[6]      primal_lower8  -128
    y[6]      primal_lower9  -47
    y[6]      mccormick2[6]  -1
    y[6]      mccormick3[6]  1
    y[7]      OBJ       -416
    y[7]      primal_upper  316
    y[7]      primal_lower0  -36
    y[7]      primal_lower1  -58
    y[7]      primal_lower2  -44
    y[7]      primal_lower3  -87
    y[7]      primal_lower4  -12
    y[7]      primal_lower5  -101
    y[7]      primal_lower6  -50
    y[7]      primal_lower7  -30
    y[7]      primal_lower8  -141
    y[7]      primal_lower9  -64
    y[7]      mccormick2[7]  -1
    y[7]      mccormick3[7]  1
    y[8]      OBJ       -1032
    y[8]      primal_upper  932
    y[8]      primal_lower0  -24
    y[8]      primal_lower1  -23
    y[8]      primal_lower2  -124
    y[8]      primal_lower3  -41
    y[8]      primal_lower4  -9
    y[8]      primal_lower5  -31
    y[8]      primal_lower6  -13
    y[8]      primal_lower7  -31
    y[8]      primal_lower8  -92
    y[8]      primal_lower9  -1
    y[8]      mccormick2[8]  -1
    y[8]      mccormick3[8]  1
    y[9]      OBJ       -830
    y[9]      primal_upper  730
    y[9]      primal_lower0  -11
    y[9]      primal_lower1  -128
    y[9]      primal_lower2  -85
    y[9]      primal_lower3  -18
    y[9]      primal_lower4  -22
    y[9]      primal_lower5  -59
    y[9]      primal_lower6  -231
    y[9]      primal_lower7  -211
    y[9]      primal_lower8  -46
    y[9]      primal_lower9  -4
    y[9]      mccormick2[9]  -1
    y[9]      mccormick3[9]  1
    y[10]     OBJ       -846
    y[10]     primal_upper  746
    y[10]     primal_lower0  -11
    y[10]     primal_lower1  -86
    y[10]     primal_lower2  -8
    y[10]     primal_lower3  -5
    y[10]     primal_lower4  -9
    y[10]     primal_lower5  -54
    y[10]     primal_lower6  -213
    y[10]     primal_lower7  -47
    y[10]     primal_lower8  -54
    y[10]     primal_lower9  -35
    y[10]     mccormick2[10]  -1
    y[10]     mccormick3[10]  1
    y[11]     OBJ       -229
    y[11]     primal_upper  129
    y[11]     primal_lower0  -24
    y[11]     primal_lower1  -82
    y[11]     primal_lower2  -60
    y[11]     primal_lower3  -87
    y[11]     primal_lower4  -15
    y[11]     primal_lower5  -104
    y[11]     primal_lower6  -135
    y[11]     primal_lower7  -160
    y[11]     primal_lower8  -151
    y[11]     primal_lower9  -60
    y[11]     mccormick2[11]  -1
    y[11]     mccormick3[11]  1
    y[12]     OBJ       -449
    y[12]     primal_upper  349
    y[12]     primal_lower0  -6
    y[12]     primal_lower1  -72
    y[12]     primal_lower2  -93
    y[12]     primal_lower3  -20
    y[12]     primal_lower4  -11
    y[12]     primal_lower5  -32
    y[12]     primal_lower6  -146
    y[12]     primal_lower7  -36
    y[12]     primal_lower8  -41
    y[12]     primal_lower9  -46
    y[12]     mccormick2[12]  -1
    y[12]     mccormick3[12]  1
    y[13]     OBJ       -166
    y[13]     primal_upper  66
    y[13]     primal_lower0  -26
    y[13]     primal_lower1  -3
    y[13]     primal_lower2  -90
    y[13]     primal_lower3  -12
    y[13]     primal_lower4  -22
    y[13]     primal_lower5  -106
    y[13]     primal_lower6  -70
    y[13]     primal_lower7  -11
    y[13]     primal_lower8  -122
    y[13]     primal_lower9  -19
    y[13]     mccormick2[13]  -1
    y[13]     mccormick3[13]  1
    y[14]     OBJ       -504
    y[14]     primal_upper  404
    y[14]     primal_lower0  -23
    y[14]     primal_lower1  -13
    y[14]     primal_lower2  -6
    y[14]     primal_lower3  -81
    y[14]     primal_lower4  -48
    y[14]     primal_lower5  -36
    y[14]     primal_lower6  -169
    y[14]     primal_lower7  -199
    y[14]     primal_lower8  -5
    y[14]     primal_lower9  -28
    y[14]     mccormick2[14]  -1
    y[14]     mccormick3[14]  1
    y[15]     OBJ       -872
    y[15]     primal_upper  772
    y[15]     primal_lower0  -32
    y[15]     primal_lower1  -45
    y[15]     primal_lower2  -96
    y[15]     primal_lower3  -16
    y[15]     primal_lower4  -25
    y[15]     primal_lower5  -112
    y[15]     primal_lower6  -105
    y[15]     primal_lower7  -169
    y[15]     primal_lower8  -24
    y[15]     primal_lower9  -16
    y[15]     mccormick2[15]  -1
    y[15]     mccormick3[15]  1
    y[16]     OBJ       -105
    y[16]     primal_upper  5
    y[16]     primal_lower0  -35
    y[16]     primal_lower1  -6
    y[16]     primal_lower2  -117
    y[16]     primal_lower3  -121
    y[16]     primal_lower4  -39
    y[16]     primal_lower5  -106
    y[16]     primal_lower6  -169
    y[16]     primal_lower7  -68
    y[16]     primal_lower8  -41
    y[16]     primal_lower9  -127
    y[16]     mccormick2[16]  -1
    y[16]     mccormick3[16]  1
    y[17]     OBJ       -939
    y[17]     primal_upper  839
    y[17]     primal_lower0  -7
    y[17]     primal_lower1  -72
    y[17]     primal_lower2  -4
    y[17]     primal_lower3  -60
    y[17]     primal_lower4  -19
    y[17]     primal_lower5  -34
    y[17]     primal_lower6  -50
    y[17]     primal_lower7  -189
    y[17]     primal_lower8  -110
    y[17]     primal_lower9  -54
    y[17]     mccormick2[17]  -1
    y[17]     mccormick3[17]  1
    y[18]     OBJ       -606
    y[18]     primal_upper  506
    y[18]     primal_lower0  -4
    y[18]     primal_lower1  -105
    y[18]     primal_lower2  -108
    y[18]     primal_lower3  -120
    y[18]     primal_lower4  -8
    y[18]     primal_lower5  -43
    y[18]     primal_lower6  -41
    y[18]     primal_lower7  -55
    y[18]     primal_lower8  -70
    y[18]     primal_lower9  -75
    y[18]     mccormick2[18]  -1
    y[18]     mccormick3[18]  1
    y[19]     OBJ       -271
    y[19]     primal_upper  171
    y[19]     primal_lower0  -44
    y[19]     primal_lower1  -49
    y[19]     primal_lower2  -14
    y[19]     primal_lower3  -69
    y[19]     primal_lower4  -32
    y[19]     primal_lower5  -73
    y[19]     primal_lower6  -126
    y[19]     primal_lower7  -43
    y[19]     primal_lower8  -81
    y[19]     primal_lower9  -11
    y[19]     mccormick2[19]  -1
    y[19]     mccormick3[19]  1
    u[0]      primal_lower0  118
    u[0]      primal_lower1  492
    u[0]      primal_lower2  656
    u[0]      primal_lower3  64
    u[0]      primal_lower4  781
    u[0]      primal_lower5  738
    u[0]      primal_lower6  306
    u[0]      primal_lower7  949
    u[0]      primal_lower8  876
    u[0]      primal_lower9  187
    u[0]      mccormick1[0]  -1
    u[0]      mccormick3[0]  1
    u[1]      primal_lower0  323
    u[1]      primal_lower1  138
    u[1]      primal_lower2  590
    u[1]      primal_lower3  862
    u[1]      primal_lower4  942
    u[1]      primal_lower5  175
    u[1]      primal_lower6  384
    u[1]      primal_lower7  983
    u[1]      primal_lower8  457
    u[1]      primal_lower9  597
    u[1]      mccormick1[1]  -1
    u[1]      mccormick3[1]  1
    u[2]      primal_lower0  55
    u[2]      primal_lower1  304
    u[2]      primal_lower2  4
    u[2]      primal_lower3  380
    u[2]      primal_lower4  70
    u[2]      primal_lower5  683
    u[2]      primal_lower6  118
    u[2]      primal_lower7  689
    u[2]      primal_lower8  461
    u[2]      primal_lower9  487
    u[2]      mccormick1[2]  -1
    u[2]      mccormick3[2]  1
    u[3]      primal_lower0  823
    u[3]      primal_lower1  315
    u[3]      primal_lower2  103
    u[3]      primal_lower3  151
    u[3]      primal_lower4  314
    u[3]      primal_lower5  203
    u[3]      primal_lower6  761
    u[3]      primal_lower7  648
    u[3]      primal_lower8  845
    u[3]      primal_lower9  374
    u[3]      mccormick1[3]  -1
    u[3]      mccormick3[3]  1
    u[4]      primal_lower0  393
    u[4]      primal_lower1  974
    u[4]      primal_lower2  410
    u[4]      primal_lower3  626
    u[4]      primal_lower4  392
    u[4]      primal_lower5  597
    u[4]      primal_lower6  188
    u[4]      primal_lower7  687
    u[4]      primal_lower8  975
    u[4]      primal_lower9  885
    u[4]      mccormick1[4]  -1
    u[4]      mccormick3[4]  1
    u[5]      primal_lower0  757
    u[5]      primal_lower1  988
    u[5]      primal_lower2  544
    u[5]      primal_lower3  440
    u[5]      primal_lower4  616
    u[5]      primal_lower5  33
    u[5]      primal_lower6  826
    u[5]      primal_lower7  305
    u[5]      primal_lower8  67
    u[5]      primal_lower9  511
    u[5]      mccormick1[5]  -1
    u[5]      mccormick3[5]  1
    u[6]      primal_lower0  934
    u[6]      primal_lower1  575
    u[6]      primal_lower2  667
    u[6]      primal_lower3  243
    u[6]      primal_lower4  853
    u[6]      primal_lower5  954
    u[6]      primal_lower6  261
    u[6]      primal_lower7  352
    u[6]      primal_lower8  436
    u[6]      primal_lower9  294
    u[6]      mccormick1[6]  -1
    u[6]      mccormick3[6]  1
    u[7]      primal_lower0  957
    u[7]      primal_lower1  240
    u[7]      primal_lower2  500
    u[7]      primal_lower3  788
    u[7]      primal_lower4  112
    u[7]      primal_lower5  937
    u[7]      primal_lower6  678
    u[7]      primal_lower7  61
    u[7]      primal_lower8  211
    u[7]      primal_lower9  843
    u[7]      mccormick1[7]  -1
    u[7]      mccormick3[7]  1
    u[8]      primal_lower0  683
    u[8]      primal_lower1  376
    u[8]      primal_lower2  964
    u[8]      primal_lower3  300
    u[8]      primal_lower4  658
    u[8]      primal_lower5  367
    u[8]      primal_lower6  190
    u[8]      primal_lower7  241
    u[8]      primal_lower8  873
    u[8]      primal_lower9  287
    u[8]      mccormick1[8]  -1
    u[8]      mccormick3[8]  1
    u[9]      primal_lower0  830
    u[9]      primal_lower1  638
    u[9]      primal_lower2  562
    u[9]      primal_lower3  26
    u[9]      primal_lower4  505
    u[9]      primal_lower5  466
    u[9]      primal_lower6  44
    u[9]      primal_lower7  907
    u[9]      primal_lower8  796
    u[9]      primal_lower9  425
    u[9]      mccormick1[9]  -1
    u[9]      mccormick3[9]  1
    u[10]     primal_lower0  596
    u[10]     primal_lower1  822
    u[10]     primal_lower2  58
    u[10]     primal_lower3  562
    u[10]     primal_lower4  987
    u[10]     primal_lower5  640
    u[10]     primal_lower6  580
    u[10]     primal_lower7  263
    u[10]     primal_lower8  2
    u[10]     primal_lower9  493
    u[10]     mccormick1[10]  -1
    u[10]     mccormick3[10]  1
    u[11]     primal_lower0  266
    u[11]     primal_lower1  917
    u[11]     primal_lower2  681
    u[11]     primal_lower3  753
    u[11]     primal_lower4  789
    u[11]     primal_lower5  158
    u[11]     primal_lower6  947
    u[11]     primal_lower7  970
    u[11]     primal_lower8  1000
    u[11]     primal_lower9  64
    u[11]     mccormick1[11]  -1
    u[11]     mccormick3[11]  1
    u[12]     primal_lower0  372
    u[12]     primal_lower1  57
    u[12]     primal_lower2  613
    u[12]     primal_lower3  677
    u[12]     primal_lower4  875
    u[12]     primal_lower5  144
    u[12]     primal_lower6  847
    u[12]     primal_lower7  50
    u[12]     primal_lower8  834
    u[12]     primal_lower9  760
    u[12]     mccormick1[12]  -1
    u[12]     mccormick3[12]  1
    u[13]     primal_lower0  758
    u[13]     primal_lower1  670
    u[13]     primal_lower2  650
    u[13]     primal_lower3  626
    u[13]     primal_lower4  433
    u[13]     primal_lower5  786
    u[13]     primal_lower6  572
    u[13]     primal_lower7  667
    u[13]     primal_lower8  708
    u[13]     primal_lower9  857
    u[13]     mccormick1[13]  -1
    u[13]     mccormick3[13]  1
    u[14]     primal_lower0  926
    u[14]     primal_lower1  944
    u[14]     primal_lower2  756
    u[14]     primal_lower3  868
    u[14]     primal_lower4  893
    u[14]     primal_lower5  674
    u[14]     primal_lower6  422
    u[14]     primal_lower7  537
    u[14]     primal_lower8  484
    u[14]     primal_lower9  871
    u[14]     mccormick1[14]  -1
    u[14]     mccormick3[14]  1
    u[15]     primal_lower0  84
    u[15]     primal_lower1  560
    u[15]     primal_lower2  844
    u[15]     primal_lower3  676
    u[15]     primal_lower4  175
    u[15]     primal_lower5  472
    u[15]     primal_lower6  350
    u[15]     primal_lower7  789
    u[15]     primal_lower8  666
    u[15]     primal_lower9  939
    u[15]     mccormick1[15]  -1
    u[15]     mccormick3[15]  1
    u[16]     primal_lower0  404
    u[16]     primal_lower1  585
    u[16]     primal_lower2  277
    u[16]     primal_lower3  341
    u[16]     primal_lower4  19
    u[16]     primal_lower5  888
    u[16]     primal_lower6  983
    u[16]     primal_lower7  442
    u[16]     primal_lower8  938
    u[16]     primal_lower9  368
    u[16]     mccormick1[16]  -1
    u[16]     mccormick3[16]  1
    u[17]     primal_lower0  651
    u[17]     primal_lower1  787
    u[17]     primal_lower2  999
    u[17]     primal_lower3  743
    u[17]     primal_lower4  814
    u[17]     primal_lower5  255
    u[17]     primal_lower6  337
    u[17]     primal_lower7  168
    u[17]     primal_lower8  257
    u[17]     primal_lower9  382
    u[17]     mccormick1[17]  -1
    u[17]     mccormick3[17]  1
    u[18]     primal_lower0  149
    u[18]     primal_lower1  54
    u[18]     primal_lower2  698
    u[18]     primal_lower3  658
    u[18]     primal_lower4  76
    u[18]     primal_lower5  841
    u[18]     primal_lower6  388
    u[18]     primal_lower7  31
    u[18]     primal_lower8  747
    u[18]     primal_lower9  421
    u[18]     mccormick1[18]  -1
    u[18]     mccormick3[18]  1
    u[19]     primal_lower0  139
    u[19]     primal_lower1  39
    u[19]     primal_lower2  91
    u[19]     primal_lower3  579
    u[19]     primal_lower4  798
    u[19]     primal_lower5  183
    u[19]     primal_lower6  229
    u[19]     primal_lower7  76
    u[19]     primal_lower8  905
    u[19]     primal_lower9  866
    u[19]     mccormick1[19]  -1
    u[19]     mccormick3[19]  1
    z[0]      primal_upper  16
    z[0]      mccormick1[0]  1
    z[0]      mccormick2[0]  1
    z[0]      mccormick3[0]  -1
    z[1]      primal_upper  27
    z[1]      mccormick1[1]  1
    z[1]      mccormick2[1]  1
    z[1]      mccormick3[1]  -1
    z[2]      primal_upper  34
    z[2]      mccormick1[2]  1
    z[2]      mccormick2[2]  1
    z[2]      mccormick3[2]  -1
    z[3]      primal_upper  80
    z[3]      mccormick1[3]  1
    z[3]      mccormick2[3]  1
    z[3]      mccormick3[3]  -1
    z[4]      primal_upper  97
    z[4]      mccormick1[4]  1
    z[4]      mccormick2[4]  1
    z[4]      mccormick3[4]  -1
    z[5]      primal_upper  20
    z[5]      mccormick1[5]  1
    z[5]      mccormick2[5]  1
    z[5]      mccormick3[5]  -1
    z[6]      primal_upper  4
    z[6]      mccormick1[6]  1
    z[6]      mccormick2[6]  1
    z[6]      mccormick3[6]  -1
    z[7]      primal_upper  32
    z[7]      mccormick1[7]  1
    z[7]      mccormick2[7]  1
    z[7]      mccormick3[7]  -1
    z[8]      primal_upper  93
    z[8]      mccormick1[8]  1
    z[8]      mccormick2[8]  1
    z[8]      mccormick3[8]  -1
    z[9]      primal_upper  73
    z[9]      mccormick1[9]  1
    z[9]      mccormick2[9]  1
    z[9]      mccormick3[9]  -1
    z[10]     primal_upper  75
    z[10]     mccormick1[10]  1
    z[10]     mccormick2[10]  1
    z[10]     mccormick3[10]  -1
    z[11]     primal_upper  13
    z[11]     mccormick1[11]  1
    z[11]     mccormick2[11]  1
    z[11]     mccormick3[11]  -1
    z[12]     primal_upper  35
    z[12]     mccormick1[12]  1
    z[12]     mccormick2[12]  1
    z[12]     mccormick3[12]  -1
    z[13]     primal_upper  7
    z[13]     mccormick1[13]  1
    z[13]     mccormick2[13]  1
    z[13]     mccormick3[13]  -1
    z[14]     primal_upper  40
    z[14]     mccormick1[14]  1
    z[14]     mccormick2[14]  1
    z[14]     mccormick3[14]  -1
    z[15]     primal_upper  77
    z[15]     mccormick1[15]  1
    z[15]     mccormick2[15]  1
    z[15]     mccormick3[15]  -1
    z[16]     mccormick1[16]  1
    z[16]     mccormick2[16]  1
    z[16]     mccormick3[16]  -1
    z[17]     primal_upper  84
    z[17]     mccormick1[17]  1
    z[17]     mccormick2[17]  1
    z[17]     mccormick3[17]  -1
    z[18]     primal_upper  51
    z[18]     mccormick1[18]  1
    z[18]     mccormick2[18]  1
    z[18]     mccormick3[18]  -1
    z[19]     primal_upper  17
    z[19]     mccormick1[19]  1
    z[19]     mccormick2[19]  1
    z[19]     mccormick3[19]  -1
    MARKER    'MARKER'                 'INTEND'
RHS
    RHS1      primal_upper  2186
    RHS1      primal_lower0  957
    RHS1      primal_lower1  2618
    RHS1      primal_lower2  2666
    RHS1      primal_lower3  2590
    RHS1      primal_lower4  987
    RHS1      primal_lower5  2548
    RHS1      primal_lower6  4705
    RHS1      primal_lower7  4907
    RHS1      primal_lower8  3134
    RHS1      primal_lower9  2727
    RHS1      mccormick3[0]  1
    RHS1      mccormick3[1]  1
    RHS1      mccormick3[2]  1
    RHS1      mccormick3[3]  1
    RHS1      mccormick3[4]  1
    RHS1      mccormick3[5]  1
    RHS1      mccormick3[6]  1
    RHS1      mccormick3[7]  1
    RHS1      mccormick3[8]  1
    RHS1      mccormick3[9]  1
    RHS1      mccormick3[10]  1
    RHS1      mccormick3[11]  1
    RHS1      mccormick3[12]  1
    RHS1      mccormick3[13]  1
    RHS1      mccormick3[14]  1
    RHS1      mccormick3[15]  1
    RHS1      mccormick3[16]  1
    RHS1      mccormick3[17]  1
    RHS1      mccormick3[18]  1
    RHS1      mccormick3[19]  1
BOUNDS
 BV BND1      y[0]    
 BV BND1      y[1]    
 BV BND1      y[2]    
 BV BND1      y[3]    
 BV BND1      y[4]    
 BV BND1      y[5]    
 BV BND1      y[6]    
 BV BND1      y[7]    
 BV BND1      y[8]    
 BV BND1      y[9]    
 BV BND1      y[10]   
 BV BND1      y[11]   
 BV BND1      y[12]   
 BV BND1      y[13]   
 BV BND1      y[14]   
 BV BND1      y[15]   
 BV BND1      y[16]   
 BV BND1      y[17]   
 BV BND1      y[18]   
 BV BND1      y[19]   
 BV BND1      u[0]    
 BV BND1      u[1]    
 BV BND1      u[2]    
 BV BND1      u[3]    
 BV BND1      u[4]    
 BV BND1      u[5]    
 BV BND1      u[6]    
 BV BND1      u[7]    
 BV BND1      u[8]    
 BV BND1      u[9]    
 BV BND1      u[10]   
 BV BND1      u[11]   
 BV BND1      u[12]   
 BV BND1      u[13]   
 BV BND1      u[14]   
 BV BND1      u[15]   
 BV BND1      u[16]   
 BV BND1      u[17]   
 BV BND1      u[18]   
 BV BND1      u[19]   
 BV BND1      z[0]    
 BV BND1      z[1]    
 BV BND1      z[2]    
 BV BND1      z[3]    
 BV BND1      z[4]    
 BV BND1      z[5]    
 BV BND1      z[6]    
 BV BND1      z[7]    
 BV BND1      z[8]    
 BV BND1      z[9]    
 BV BND1      z[10]   
 BV BND1      z[11]   
 BV BND1      z[12]   
 BV BND1      z[13]   
 BV BND1      z[14]   
 BV BND1      z[15]   
 BV BND1      z[16]   
 BV BND1      z[17]   
 BV BND1      z[18]   
 BV BND1      z[19]   
ENDATA
